Set parameter TokenServer to value "hpc-licenses.hpcc.usc.edu"
Set parameter TimeLimit to value 3600
Gurobi Optimizer version 9.5.1 build v9.5.1rc2 (linux64)
Thread count: 20 physical cores, 20 logical processors, using up to 20 threads
Optimize a model with 6007 rows, 4529 columns and 24534 nonzeros
Model fingerprint: 0x300d6285
Variable types: 4506 continuous, 23 integer (23 binary)
Coefficient statistics:
  Matrix range     [1e+00, 1e+00]
  Objective range  [2e-03, 1e+00]
  Bounds range     [1e+00, 1e+00]
  RHS range        [1e+00, 8e+01]
Found heuristic solution: objective 296.7448472
Presolve removed 1514 rows and 1511 columns
Presolve time: 0.08s
Presolved: 4493 rows, 3018 columns, 21993 nonzeros
Variable types: 2998 continuous, 20 integer (20 binary)

Root relaxation: objective 2.998489e+02, 2889 iterations, 0.13 seconds (0.14 work units)

    Nodes    |    Current Node    |     Objective Bounds      |     Work
 Expl Unexpl |  Obj  Depth IntInf | Incumbent    BestBd   Gap | It/Node Time

     0     0  299.84889    0    4  296.74485  299.84889  1.05%     -    0s
     0     0  299.80459    0    5  296.74485  299.80459  1.03%     -    0s
H    0     0                     299.6003685  299.80459  0.07%     -    0s

Cutting planes:
  Gomory: 3
  MIR: 122
  RLT: 12

Explored 1 nodes (3239 simplex iterations) in 0.55 seconds (0.41 work units)
Thread count was 20 (of 20 available processors)

Solution count 2: 299.6 296.745 

Optimal solution found (tolerance 1.00e-04)
Best objective 2.996003684734e+02, best bound 2.996003684734e+02, gap 0.0000%



#########node  1
V1.9
#########node  2
0.0,1.0
#########node  3
1.0,0.0


Total Solving Time 0.9476852416992188
obj value 299.60036847336283
Policy Regret train (Sum) 1.2671902492705043
Best Treatment Found train (%) 86.2
treatment classification acc train (%) 54.6
Policy Regret test (Sum) 171.4960881571544
Best Treatment Found test (%) 52.800000000000004
treatment classification acc test (%) 56.3
